(set-logic QF_S)
(declare-fun var0 () String)
(declare-fun var1 () String)
(declare-fun var2 () String)
(declare-fun var3 () String)
(declare-fun var4 () String)
(declare-fun var5 () String)
(declare-fun var6 () String)
(declare-fun var7 () String)
(declare-fun var8 () String)
(declare-fun var9 () String)
(declare-fun var10 () String)
(declare-fun var11 () String)
(declare-fun var12 () String)
(declare-fun var13 () String)
(declare-fun var14 () String)
(declare-fun var15 () String)
(declare-fun var16 () String)
(declare-fun var17 () String)
(declare-fun var18 () String)
(declare-fun var19 () String)
(declare-fun var20 () String)
(declare-fun var21 () String)
(declare-fun var22 () String)
(declare-fun var23 () String)
(declare-fun var24 () String)
(declare-fun var25 () String)
(declare-fun var26 () String)
(declare-fun var27 () String)
(declare-fun var28 () String)
(declare-fun var29 () String)
(declare-fun var30 () String)
(declare-fun var31 () String)
(declare-fun var32 () String)
(declare-fun var33 () String)
(declare-fun var34 () String)
(declare-fun var35 () String)
(declare-fun var36 () String)
(declare-fun var37 () String)
(declare-fun var38 () String)
(declare-fun var39 () String)
(declare-fun var40 () String)
(declare-fun var41 () String)
(declare-fun var42 () String)
(declare-fun var43 () String)
(declare-fun var44 () String)
(declare-fun var45 () String)
(declare-fun var46 () String)
(declare-fun var47 () String)
(declare-fun var48 () String)
(declare-fun var49 () String)
(declare-fun var50 () String)
(declare-fun var51 () String)
(declare-fun var52 () String)
(declare-fun var53 () String)
(declare-fun var54 () String)
(declare-fun var55 () String)
(declare-fun var56 () String)
(declare-fun var57 () String)
(declare-fun var58 () String)
(declare-fun var59 () String)
(declare-fun var60 () String)
(assert (= var0 (Concat var1 var2)))
(assert (= var2 (Concat var3 var4)))
(assert (= var4 (Concat var5 var6)))
(assert (= var6 (Concat var7 var8)))
(assert (= var8 (Concat var9 var10)))
(assert (= var10 (Concat var11 var12)))
(assert (= var12 (Concat var13 var14)))
(assert (= var14 (Concat var15 var16)))
(assert (= var16 (Concat var17 var18)))
(assert (= var18 (Concat var19 var20)))
(assert (= var20 (Concat var21 var22)))
(assert (= var22 (Concat var23 var24)))
(assert (= var24 (Concat var25 var26)))
(assert (= var26 (Concat var27 var28)))
(assert (= var28 (Concat var29 var30)))
(assert (= var30 (Concat var31 var32)))
(assert (= var32 (Concat var33 var34)))
(assert (= var34 (Concat var35 var36)))
(assert (= var36 (Concat var37 var38)))
(assert (= var38 (Concat var39 var40)))
(assert (= var40 (Concat var41 var42)))
(assert (= var42 (Concat var43 var44)))
(assert (= var44 (Concat var45 var46)))
(assert (= var46 (Concat var47 var48)))
(assert (= var48 (Concat var49 var50)))
(assert (= var50 (Concat var51 var52)))
(assert (= var52 (Concat var53 var54)))
(assert (= var54 (Concat var55 var56)))
(assert (= var56 (Concat var57 var58)))
(assert (= var58 (Concat var59 var60)))
(assert (= var0 "solution"))
(assert (= "@" (CharAt var4 680)))
(assert (= "o" (CharAt var56 588)))
(assert (= "D" (CharAt var29 724)))
(assert (= "9" (CharAt var49 37)))
(assert (= "{" (CharAt var25 689)))
(assert (= "B" (CharAt var35 842)))
(assert (= "8" (CharAt var50 751)))
(assert (= "D" (CharAt var41 814)))
(assert (= "V" (CharAt var13 42)))
(assert (= "f" (CharAt var53 953)))
(assert (= "E" (CharAt var53 468)))
(assert (= "y" (CharAt var58 291)))
(assert (= "W" (CharAt var46 448)))
(assert (= "t" (CharAt var55 660)))
(assert (= ">" (CharAt var13 129)))
(assert (= "B" (CharAt var17 532)))
(assert (= "&" (CharAt var39 869)))
(assert (= "$" (CharAt var0 734)))
(assert (= "5" (CharAt var28 299)))
(assert (= "k" (CharAt var45 734)))
(assert (= "m" (CharAt var37 147)))
(assert (= "@" (CharAt var42 736)))
(assert (= "3" (CharAt var31 643)))
(assert (= "@" (CharAt var21 886)))
(assert (= "p" (CharAt var41 342)))
(assert (= "E" (CharAt var29 364)))
(assert (= "A" (CharAt var57 800)))
(assert (= "[" (CharAt var38 38)))
(assert (= "s" (CharAt var43 171)))
(assert (= "U" (CharAt var32 757)))
(assert (= "j" (CharAt var17 400)))
(assert (= "1" (CharAt var46 22)))
(assert (= "B" (CharAt var51 394)))
(assert (= "z" (CharAt var54 753)))
(assert (= "_" (CharAt var30 671)))
(assert (= "*" (CharAt var4 447)))
(assert (= "%" (CharAt var9 925)))
(assert (= "." (CharAt var21 133)))
(assert (= "i" (CharAt var58 10)))
(assert (= "d" (CharAt var11 486)))
(assert (= "x" (CharAt var10 944)))
(assert (= "." (CharAt var38 347)))
(assert (= "^" (CharAt var54 949)))
(assert (= "C" (CharAt var44 401)))
(assert (= "{" (CharAt var34 777)))
(assert (= "+" (CharAt var11 249)))
(assert (= "h" (CharAt var6 863)))
(assert (= "K" (CharAt var55 391)))
(assert (= "q" (CharAt var15 219)))
(assert (= "d" (CharAt var22 306)))
(assert (= "`" (CharAt var51 423)))
(assert (= "g" (CharAt var2 592)))
(assert (= "u" (CharAt var17 666)))
(assert (= "-" (CharAt var12 121)))
(assert (= "t" (CharAt var8 971)))
(assert (= "g" (CharAt var43 997)))
(assert (= ">" (CharAt var8 407)))
(assert (= "*" (CharAt var36 376)))
(assert (= "S" (CharAt var5 399)))
(assert (= "3" (CharAt var18 204)))
(assert (= "j" (CharAt var18 703)))
(assert (= "#" (CharAt var52 210)))
(assert (= "}" (CharAt var23 947)))
(assert (= "a" (CharAt var59 634)))
(assert (= "B" (CharAt var10 531)))
(assert (= "\"" (CharAt var24 785)))
(assert (= "." (CharAt var4 607)))
(assert (= "F" (CharAt var38 870)))
(assert (= "d" (CharAt var22 861)))
(assert (= "k" (CharAt var9 420)))
(assert (= "e" (CharAt var11 810)))
(assert (= "r" (CharAt var10 703)))
(assert (= "7" (CharAt var46 113)))
(assert (= "s" (CharAt var41 787)))
(assert (= "T" (CharAt var43 52)))
(assert (= "f" (CharAt var19 795)))
(assert (= "M" (CharAt var47 261)))
(assert (= "b" (CharAt var38 906)))
(assert (= "_" (CharAt var12 539)))
(assert (= "(" (CharAt var27 818)))
(assert (= "g" (CharAt var48 674)))
(assert (= "f" (CharAt var5 676)))
(assert (= "l" (CharAt var22 877)))
(assert (= "6" (CharAt var42 917)))
(assert (= ":" (CharAt var19 690)))
(assert (= "+" (CharAt var17 619)))
(assert (= "c" (CharAt var50 634)))
(assert (= "%" (CharAt var7 107)))
(assert (= "H" (CharAt var11 466)))
(assert (= "t" (CharAt var15 924)))
(assert (= "c" (CharAt var24 433)))
(assert (= "p" (CharAt var32 357)))
(assert (= "H" (CharAt var50 391)))
(assert (= "v" (CharAt var5 468)))
(assert (= "S" (CharAt var21 535)))
(assert (= "w" (CharAt var24 875)))
(assert (= "x" (CharAt var24 681)))
(assert (= "b" (CharAt var17 325)))
(assert (= "m" (CharAt var57 97)))
(assert (= "f" (CharAt var11 976)))
(assert (= "`" (CharAt var47 374)))
(assert (= "%" (CharAt var43 148)))
(assert (= "t" (CharAt var49 117)))
(assert (= "5" (CharAt var48 201)))
(assert (= "`" (CharAt var6 678)))
(assert (= "<" (CharAt var43 923)))
(assert (= "{" (CharAt var44 234)))
(assert (= "F" (CharAt var58 896)))
(assert (= "e" (CharAt var54 873)))
(assert (= "H" (CharAt var6 814)))
(assert (= "`" (CharAt var18 625)))
(assert (= "&" (CharAt var28 307)))
(assert (= "<" (CharAt var49 294)))
(assert (= "," (CharAt var58 603)))
(assert (= "m" (CharAt var25 219)))
(assert (= "c" (CharAt var41 346)))
(assert (= "&" (CharAt var24 55)))
(assert (= "T" (CharAt var43 881)))
(assert (= "C" (CharAt var4 656)))
(assert (= "0" (CharAt var41 427)))
(assert (= "*" (CharAt var15 571)))
(assert (= ":" (CharAt var44 32)))
(assert (= "w" (CharAt var26 124)))
(assert (= "Q" (CharAt var50 333)))
(assert (= "|" (CharAt var48 571)))
(assert (= "{" (CharAt var44 217)))
(assert (= "7" (CharAt var53 142)))
(assert (= "x" (CharAt var56 459)))
(assert (= "Y" (CharAt var44 969)))
(assert (= "h" (CharAt var38 218)))
(assert (= "7" (CharAt var45 703)))
(assert (= "f" (CharAt var39 421)))
(assert (= "a" (CharAt var18 675)))
(assert (= "c" (CharAt var46 892)))
(assert (= "H" (CharAt var11 510)))
(assert (= "l" (CharAt var41 466)))
(assert (= "{" (CharAt var60 722)))
(assert (= "7" (CharAt var23 261)))
(assert (= "q" (CharAt var1 658)))
(assert (= "%" (CharAt var13 252)))
(assert (= "[" (CharAt var28 806)))
(assert (= "5" (CharAt var46 709)))
(assert (= "*" (CharAt var57 138)))
(assert (= "!" (CharAt var35 738)))
(assert (= "y" (CharAt var60 34)))
(assert (= "r" (CharAt var25 506)))
(assert (= "*" (CharAt var48 511)))
(assert (= "y" (CharAt var48 652)))
(assert (= "\\" (CharAt var43 458)))
(assert (= "2" (CharAt var50 428)))
(assert (= "u" (CharAt var29 985)))
(assert (= "$" (CharAt var16 978)))
(assert (= "_" (CharAt var13 773)))
(assert (= "2" (CharAt var16 574)))
(assert (= "C" (CharAt var30 557)))
(assert (= "G" (CharAt var4 246)))
(assert (= "m" (CharAt var41 904)))
(assert (= "W" (CharAt var6 571)))
(assert (= "e" (CharAt var5 58)))
(assert (= "k" (CharAt var30 895)))
(assert (= "I" (CharAt var18 747)))
(assert (= "+" (CharAt var1 756)))
(assert (= "k" (CharAt var0 25)))
(assert (= "$" (CharAt var29 567)))
(assert (= "!" (CharAt var22 560)))
(assert (= "7" (CharAt var7 398)))
(assert (= "A" (CharAt var58 286)))
(assert (= "7" (CharAt var33 420)))
(assert (= "d" (CharAt var42 93)))
(assert (= "9" (CharAt var44 988)))
(assert (= "," (CharAt var44 861)))
(assert (= "c" (CharAt var47 517)))
(assert (= "N" (CharAt var13 620)))
(assert (= "l" (CharAt var2 752)))
(assert (= "i" (CharAt var52 437)))
(assert (= "F" (CharAt var41 291)))
(assert (= "D" (CharAt var26 871)))
(assert (= "+" (CharAt var28 295)))
(assert (= "v" (CharAt var57 464)))
(assert (= "8" (CharAt var46 553)))
(assert (= "," (CharAt var16 179)))
(assert (= ">" (CharAt var17 52)))
(assert (= "5" (CharAt var2 548)))
(assert (= "L" (CharAt var35 721)))
(assert (= "%" (CharAt var1 136)))
(assert (= "`" (CharAt var51 741)))
(assert (= "B" (CharAt var13 167)))
(assert (= "[" (CharAt var36 149)))
(assert (= "P" (CharAt var41 777)))
(assert (= "<" (CharAt var51 159)))
(assert (= "3" (CharAt var59 863)))
(assert (= "G" (CharAt var36 420)))
(assert (= "@" (CharAt var53 943)))
(assert (= ")" (CharAt var50 916)))
(assert (= "<" (CharAt var44 490)))
(assert (= "V" (CharAt var24 428)))
(assert (= ")" (CharAt var7 720)))
(assert (= ";" (CharAt var13 840)))
(assert (= "V" (CharAt var5 723)))
(assert (= "2" (CharAt var40 820)))
(assert (= "K" (CharAt var10 335)))
(assert (= "Y" (CharAt var45 561)))
(assert (= "5" (CharAt var4 111)))
(assert (= "p" (CharAt var26 695)))
(assert (= "4" (CharAt var48 582)))
(assert (= "C" (CharAt var23 67)))
(assert (= "(" (CharAt var20 515)))
(assert (= "|" (CharAt var54 181)))
(assert (= "8" (CharAt var36 526)))
(assert (= "[" (CharAt var4 477)))
(assert (= "Q" (CharAt var34 349)))
(assert (= "W" (CharAt var48 305)))
(assert (= "P" (CharAt var19 476)))
(assert (= "3" (CharAt var7 747)))
(assert (= "4" (CharAt var45 216)))
(assert (= "8" (CharAt var17 182)))
(assert (= "]" (CharAt var56 356)))
(assert (= "7" (CharAt var18 718)))
(assert (= "q" (CharAt var18 431)))
(assert (= ">" (CharAt var42 306)))
(assert (= "\\" (CharAt var32 79)))
(assert (= "A" (CharAt var21 481)))
(assert (= "W" (CharAt var60 352)))
(assert (= "u" (CharAt var1 92)))
(assert (= "Y" (CharAt var32 603)))
(assert (= "." (CharAt var52 960)))
(assert (= ">" (CharAt var12 94)))
(assert (= "j" (CharAt var45 616)))
(assert (= "V" (CharAt var60 313)))
(assert (= "c" (CharAt var37 162)))
(assert (= "q" (CharAt var41 166)))
(assert (= ":" (CharAt var47 751)))
(assert (= "x" (CharAt var1 634)))
(assert (= "8" (CharAt var18 596)))
(assert (= "h" (CharAt var26 507)))
(assert (= "P" (CharAt var31 461)))
(assert (= "{" (CharAt var22 794)))
(assert (= "L" (CharAt var57 221)))
(assert (= "r" (CharAt var28 940)))
(assert (= "s" (CharAt var37 769)))
(assert (= "C" (CharAt var14 462)))
(assert (= "6" (CharAt var2 90)))
(assert (= "#" (CharAt var16 401)))
(assert (= "e" (CharAt var52 557)))
(assert (= "N" (CharAt var52 574)))
(assert (= "u" (CharAt var20 523)))
(assert (= "'" (CharAt var58 737)))
(assert (= "e" (CharAt var48 784)))
(assert (= "/" (CharAt var13 558)))
(assert (= "e" (CharAt var18 933)))
(assert (= "&" (CharAt var56 31)))
(assert (= "1" (CharAt var47 8)))
(assert (= "-" (CharAt var56 901)))
(assert (= "*" (CharAt var49 982)))
(assert (= "A" (CharAt var15 906)))
(assert (= "1" (CharAt var48 405)))
(assert (= "\\" (CharAt var9 895)))
(assert (= "s" (CharAt var23 126)))
(assert (= ">" (CharAt var33 194)))
(assert (= "3" (CharAt var39 691)))
(assert (= "p" (CharAt var22 685)))
(assert (= "x" (CharAt var11 591)))
(assert (= "2" (CharAt var48 491)))
(assert (= "w" (CharAt var35 352)))
(assert (= "," (CharAt var56 677)))
(assert (= "O" (CharAt var49 100)))
(assert (= ">" (CharAt var1 160)))
(assert (= "(" (CharAt var20 883)))
(assert (= "V" (CharAt var24 21)))
(assert (= "P" (CharAt var0 145)))
(assert (= "D" (CharAt var48 855)))
(assert (= "W" (CharAt var51 653)))
(assert (= "t" (CharAt var52 551)))
(assert (= "v" (CharAt var4 26)))
(assert (= "." (CharAt var40 633)))
(assert (= "2" (CharAt var56 34)))
(assert (= "7" (CharAt var36 192)))
(assert (= "M" (CharAt var4 245)))
(assert (= "9" (CharAt var56 76)))
(assert (= "|" (CharAt var45 759)))
(assert (= "N" (CharAt var27 227)))
(assert (= "Y" (CharAt var14 151)))
(assert (= "x" (CharAt var14 225)))
(assert (= "!" (CharAt var36 894)))
(assert (= "s" (CharAt var16 534)))
(assert (= "\"" (CharAt var19 799)))
(assert (= "c" (CharAt var54 141)))
(assert (= "G" (CharAt var59 610)))
(assert (= "o" (CharAt var55 37)))
(assert (= "<" (CharAt var14 83)))
(assert (= "y" (CharAt var30 498)))
(assert (= "m" (CharAt var37 498)))
(assert (= "l" (CharAt var5 101)))
(assert (= "O" (CharAt var23 98)))
(assert (= "(" (CharAt var1 233)))
(assert (= "t" (CharAt var28 402)))
(assert (= "1" (CharAt var35 441)))
(assert (= "." (CharAt var26 31)))
(assert (= "G" (CharAt var4 385)))
(assert (= "o" (CharAt var21 350)))
(assert (= "a" (CharAt var55 496)))
(assert (= "w" (CharAt var55 631)))
(assert (= "=" (CharAt var31 697)))
(assert (= "]" (CharAt var34 779)))
(assert (= "i" (CharAt var56 490)))
(assert (= "+" (CharAt var8 425)))
(assert (= "-" (CharAt var6 291)))
(assert (= "*" (CharAt var0 976)))
(assert (= "(" (CharAt var49 492)))
(assert (= "U" (CharAt var6 698)))
(assert (= "." (CharAt var34 506)))
(assert (= "b" (CharAt var18 347)))
(assert (= "/" (CharAt var21 146)))
(assert (= "y" (CharAt var20 2)))
(assert (= "f" (CharAt var32 881)))
(assert (= "0" (CharAt var2 718)))
(assert (= "E" (CharAt var22 992)))
(assert (= "F" (CharAt var42 734)))
(assert (= "." (CharAt var16 723)))
(assert (= "m" (CharAt var20 234)))
(assert (= "0" (CharAt var50 420)))
(assert (= "E" (CharAt var21 334)))
(assert (= "v" (CharAt var22 352)))
(assert (= "O" (CharAt var22 811)))
(assert (= "J" (CharAt var50 612)))
(assert (= "`" (CharAt var28 867)))
(assert (= "'" (CharAt var51 449)))
(assert (= "(" (CharAt var34 28)))
(assert (= "h" (CharAt var5 656)))
(assert (= "r" (CharAt var19 429)))
(assert (= "B" (CharAt var32 381)))
(assert (= "3" (CharAt var36 229)))
(assert (= "{" (CharAt var42 691)))
(assert (= "d" (CharAt var26 574)))
(assert (= "7" (CharAt var49 935)))
(assert (= "{" (CharAt var32 907)))
(assert (= "c" (CharAt var26 755)))
(assert (= "s" (CharAt var20 236)))
(assert (= "Z" (CharAt var57 60)))
(assert (= "C" (CharAt var24 762)))
(assert (= "." (CharAt var1 220)))
(assert (= "\"" (CharAt var50 878)))
(assert (= "T" (CharAt var56 585)))
(assert (= "8" (CharAt var36 701)))
(assert (= "D" (CharAt var42 799)))
(assert (= "<" (CharAt var8 734)))
(assert (= "^" (CharAt var5 407)))
(assert (= "G" (CharAt var21 610)))
(assert (= "l" (CharAt var37 485)))
(assert (= "," (CharAt var6 569)))
(assert (= "E" (CharAt var29 655)))
(assert (= "O" (CharAt var2 598)))
(assert (= "j" (CharAt var7 883)))
(assert (= "F" (CharAt var40 801)))
(assert (= "K" (CharAt var34 603)))
(assert (= "H" (CharAt var39 521)))
(assert (= "T" (CharAt var54 185)))
(assert (= "," (CharAt var52 838)))
(assert (= "%" (CharAt var28 685)))
(assert (= "7" (CharAt var9 339)))
(assert (= "}" (CharAt var19 761)))
(assert (= ")" (CharAt var8 335)))
(assert (= "~" (CharAt var26 633)))
(assert (= "=" (CharAt var60 471)))
(assert (= "6" (CharAt var10 886)))
(assert (= "<" (CharAt var46 658)))
(assert (= "U" (CharAt var16 651)))
(assert (= "/" (CharAt var23 208)))
(assert (= "}" (CharAt var17 845)))
(assert (= "h" (CharAt var11 668)))
(assert (= "j" (CharAt var47 181)))
(assert (= "w" (CharAt var17 908)))
(assert (= "U" (CharAt var2 346)))
(assert (= "@" (CharAt var38 730)))
(assert (= "Z" (CharAt var1 64)))
(assert (= "4" (CharAt var57 17)))
(assert (= "W" (CharAt var51 841)))
(assert (= "o" (CharAt var31 215)))
(assert (= "j" (CharAt var9 505)))
(assert (= ")" (CharAt var46 362)))
(assert (= "K" (CharAt var18 344)))
(assert (= "K" (CharAt var21 438)))
(assert (= "N" (CharAt var34 163)))
(assert (= "j" (CharAt var38 664)))
(assert (= "C" (CharAt var25 583)))
(assert (= "D" (CharAt var12 58)))
(assert (= "c" (CharAt var38 98)))
(assert (= "U" (CharAt var51 439)))
(assert (= "a" (CharAt var27 198)))
(assert (= "O" (CharAt var23 295)))
(assert (= "K" (CharAt var8 624)))
(assert (= "g" (CharAt var16 500)))
(assert (= "4" (CharAt var10 51)))
(assert (= "Q" (CharAt var38 811)))
(assert (= "Z" (CharAt var5 712)))
(assert (= "\\" (CharAt var2 748)))
(assert (= "D" (CharAt var39 820)))
(assert (= "v" (CharAt var55 94)))
(assert (= "0" (CharAt var18 968)))
(assert (= "/" (CharAt var39 589)))
(assert (= "O" (CharAt var6 975)))
(assert (= "." (CharAt var12 657)))
(assert (= "h" (CharAt var57 226)))
(assert (= ")" (CharAt var38 80)))
(assert (= "*" (CharAt var31 986)))
(assert (= "!" (CharAt var44 920)))
(assert (= "8" (CharAt var56 667)))
(assert (= "s" (CharAt var47 278)))
(assert (= "n" (CharAt var9 882)))
(assert (= "b" (CharAt var3 910)))
(assert (= "." (CharAt var49 956)))
(assert (= "c" (CharAt var27 602)))
(assert (= "0" (CharAt var47 199)))
(assert (= "J" (CharAt var60 835)))
(assert (= "3" (CharAt var19 832)))
(assert (= "3" (CharAt var22 943)))
(assert (= "F" (CharAt var12 933)))
(assert (= "l" (CharAt var45 587)))
(assert (= "." (CharAt var53 444)))
(assert (= "," (CharAt var10 994)))
(assert (= "j" (CharAt var16 99)))
(assert (= "(" (CharAt var26 355)))
(assert (= "{" (CharAt var18 950)))
(assert (= "k" (CharAt var18 780)))
(assert (= "N" (CharAt var26 503)))
(assert (= "G" (CharAt var3 550)))
(assert (= "n" (CharAt var16 865)))
(assert (= "k" (CharAt var38 203)))
(assert (= "Q" (CharAt var25 514)))
(assert (= "X" (CharAt var41 518)))
(assert (= "7" (CharAt var15 820)))
(assert (= "l" (CharAt var42 733)))
(assert (= "8" (CharAt var45 517)))
(assert (= "\"" (CharAt var44 607)))
(assert (= "?" (CharAt var22 190)))
(assert (= "(" (CharAt var56 742)))
(assert (= ";" (CharAt var9 243)))
(assert (= "j" (CharAt var17 180)))
(assert (= "I" (CharAt var53 865)))
(assert (= "J" (CharAt var14 169)))
(assert (= "R" (CharAt var50 629)))
(assert (= "`" (CharAt var25 947)))
(assert (= "I" (CharAt var7 684)))
(assert (= "," (CharAt var27 427)))
(assert (= "j" (CharAt var21 736)))
(assert (= "0" (CharAt var37 362)))
(assert (= ")" (CharAt var28 154)))
(assert (= "[" (CharAt var50 855)))
(assert (= "+" (CharAt var5 108)))
(assert (= "q" (CharAt var19 181)))
(assert (= "Y" (CharAt var50 140)))
(assert (= "p" (CharAt var28 89)))
(assert (= "X" (CharAt var8 397)))
(assert (= "i" (CharAt var59 51)))
(assert (= "P" (CharAt var13 463)))
(assert (= "u" (CharAt var41 956)))
(assert (= "<" (CharAt var52 329)))
(assert (= "h" (CharAt var44 230)))
(assert (= "x" (CharAt var46 285)))
(assert (= "V" (CharAt var42 229)))
(assert (= "h" (CharAt var55 43)))
(assert (= "x" (CharAt var5 523)))
(assert (= "~" (CharAt var57 89)))
(assert (= "r" (CharAt var10 12)))
(assert (= "~" (CharAt var42 926)))
(assert (= "T" (CharAt var0 589)))
(assert (= "|" (CharAt var38 924)))
(assert (= "I" (CharAt var28 999)))
(assert (= "w" (CharAt var29 173)))
(assert (= "?" (CharAt var25 77)))
(assert (= "c" (CharAt var37 137)))
(assert (= ">" (CharAt var32 806)))
(assert (= "}" (CharAt var42 902)))
(assert (= "X" (CharAt var49 702)))
(assert (= "T" (CharAt var2 413)))
(assert (= "n" (CharAt var24 310)))
(assert (= "s" (CharAt var5 641)))
(assert (= "T" (CharAt var60 150)))
(assert (= "6" (CharAt var12 719)))
(assert (= "&" (CharAt var3 429)))
(assert (= "c" (CharAt var55 461)))
(assert (= "Q" (CharAt var44 865)))
(assert (= ";" (CharAt var55 179)))
(assert (= "E" (CharAt var57 366)))
(assert (= "Q" (CharAt var28 229)))
(assert (= "<" (CharAt var42 75)))
(assert (= "W" (CharAt var28 382)))
(assert (= "T" (CharAt var7 706)))
(assert (= "t" (CharAt var48 319)))
(assert (= ">" (CharAt var8 95)))
(assert (= ")" (CharAt var50 679)))
(assert (= "+" (CharAt var26 80)))
(assert (= "B" (CharAt var1 971)))
(assert (= "Y" (CharAt var56 548)))
(assert (= "V" (CharAt var56 938)))
(assert (= "/" (CharAt var46 877)))
(assert (= "&" (CharAt var58 306)))
(assert (= "1" (CharAt var7 308)))
(assert (= "=" (CharAt var3 53)))
(assert (= "1" (CharAt var37 753)))
(assert (= "." (CharAt var49 420)))
(assert (= "[" (CharAt var33 587)))
(assert (= "6" (CharAt var50 752)))
(assert (= "u" (CharAt var11 124)))
(assert (= "k" (CharAt var30 143)))
(assert (= "k" (CharAt var36 691)))
(assert (= "X" (CharAt var11 863)))
(assert (= ":" (CharAt var32 773)))
(assert (= "C" (CharAt var4 95)))
(assert (= "o" (CharAt var46 935)))
(assert (= "8" (CharAt var30 744)))
(assert (= "7" (CharAt var0 776)))
(assert (= "O" (CharAt var39 548)))
(assert (= "a" (CharAt var19 539)))
(assert (= "N" (CharAt var56 290)))
(assert (= "p" (CharAt var9 971)))
(assert (= "]" (CharAt var57 113)))
(assert (= "P" (CharAt var34 367)))
(assert (= "3" (CharAt var31 906)))
(assert (= "#" (CharAt var11 930)))
(assert (= "z" (CharAt var42 221)))
(assert (= "z" (CharAt var42 73)))
(assert (= "A" (CharAt var24 422)))
(assert (= "K" (CharAt var40 299)))
(assert (= "Z" (CharAt var14 287)))
(assert (= "|" (CharAt var56 206)))
(assert (= "R" (CharAt var38 389)))
(assert (= "i" (CharAt var31 377)))
(assert (= "a" (CharAt var20 437)))
(assert (= "N" (CharAt var57 674)))
(assert (= "M" (CharAt var58 880)))
(assert (= "D" (CharAt var45 884)))
(assert (= "z" (CharAt var0 378)))
(assert (= "D" (CharAt var44 323)))
(assert (= "[" (CharAt var33 404)))
(assert (= ";" (CharAt var39 986)))
(assert (= "t" (CharAt var11 136)))
(assert (= "^" (CharAt var7 119)))
(assert (= "(" (CharAt var35 808)))
(assert (= "x" (CharAt var2 487)))
(assert (= "Z" (CharAt var34 549)))
(assert (= "0" (CharAt var3 740)))
(assert (= ")" (CharAt var35 787)))
(assert (= "~" (CharAt var52 235)))
(assert (= "D" (CharAt var13 325)))
(assert (= "p" (CharAt var54 481)))
(assert (= "?" (CharAt var50 141)))
(assert (= ";" (CharAt var7 14)))
(assert (= ":" (CharAt var53 619)))
(assert (= "i" (CharAt var29 4)))
(assert (= "u" (CharAt var18 486)))
(assert (= "4" (CharAt var18 4)))
(assert (= "[" (CharAt var46 634)))
(assert (= "a" (CharAt var5 653)))
(assert (= "Z" (CharAt var17 417)))
(assert (= "I" (CharAt var34 839)))
(assert (= "|" (CharAt var19 609)))
(assert (= "a" (CharAt var53 425)))
(assert (= "_" (CharAt var26 735)))
(assert (= "$" (CharAt var26 668)))
(assert (= "V" (CharAt var41 151)))
(assert (= "\\" (CharAt var56 33)))
(assert (= "z" (CharAt var30 790)))
(assert (= "F" (CharAt var4 504)))
(assert (= "R" (CharAt var5 265)))
(assert (= ":" (CharAt var10 125)))
(assert (= "r" (CharAt var56 516)))
(assert (= "?" (CharAt var14 487)))
(assert (= "K" (CharAt var7 241)))
(assert (= "s" (CharAt var28 315)))
(assert (= "-" (CharAt var13 980)))
(assert (= "l" (CharAt var12 63)))
(assert (= "K" (CharAt var15 29)))
(assert (= "1" (CharAt var22 664)))
(assert (= "," (CharAt var56 768)))
(assert (= "M" (CharAt var33 619)))
(assert (= "&" (CharAt var55 553)))
(assert (= "O" (CharAt var45 251)))
(assert (= "\"" (CharAt var12 37)))
(assert (= "c" (CharAt var43 623)))
(assert (= "\"" (CharAt var37 410)))
(assert (= "v" (CharAt var7 451)))
(assert (= "T" (CharAt var31 346)))
(assert (= "\"" (CharAt var24 152)))
(assert (= ":" (CharAt var17 299)))
(assert (= "S" (CharAt var38 428)))
(assert (= ">" (CharAt var47 290)))
(assert (= "r" (CharAt var5 771)))
(assert (= "3" (CharAt var50 365)))
(assert (= "'" (CharAt var54 205)))
(assert (= "h" (CharAt var0 759)))
(assert (= "/" (CharAt var22 85)))
(assert (= "s" (CharAt var34 143)))
(assert (= "|" (CharAt var4 404)))
(assert (= "v" (CharAt var31 729)))
(assert (= "O" (CharAt var20 991)))
(assert (= "*" (CharAt var17 302)))
(assert (= "i" (CharAt var13 30)))
(assert (= "g" (CharAt var11 468)))
(assert (= "'" (CharAt var24 316)))
(assert (= "V" (CharAt var49 17)))
(assert (= "U" (CharAt var9 977)))
(assert (= "_" (CharAt var39 515)))
(assert (= "B" (CharAt var51 475)))
(assert (= "K" (CharAt var7 22)))
(assert (= "_" (CharAt var48 44)))
(assert (= "^" (CharAt var13 631)))
(assert (= "Z" (CharAt var55 838)))
(assert (= "C" (CharAt var27 675)))
(assert (= "~" (CharAt var53 796)))
(assert (= "!" (CharAt var30 135)))
(assert (= "C" (CharAt var28 822)))
(assert (= "y" (CharAt var16 929)))
(assert (= "]" (CharAt var42 71)))
(assert (= "H" (CharAt var30 399)))
(assert (= "<" (CharAt var3 523)))
(assert (= "G" (CharAt var15 607)))
(assert (= "\\" (CharAt var44 387)))
(assert (= "g" (CharAt var32 84)))
(assert (= "_" (CharAt var14 312)))
(assert (= "%" (CharAt var4 211)))
(assert (= "G" (CharAt var10 581)))
(assert (= "\\" (CharAt var57 298)))
(assert (= "v" (CharAt var4 371)))
(assert (= "n" (CharAt var58 612)))
(assert (= "\\" (CharAt var26 536)))
(assert (= "d" (CharAt var7 231)))
(assert (= "F" (CharAt var42 463)))
(assert (= "J" (CharAt var26 81)))
(assert (= "h" (CharAt var6 134)))
(assert (= "&" (CharAt var31 224)))
(assert (= "9" (CharAt var16 727)))
(assert (= "\\" (CharAt var5 511)))
(assert (= "$" (CharAt var1 531)))
(assert (= ">" (CharAt var10 7)))
(assert (= "x" (CharAt var19 112)))
(assert (= "k" (CharAt var41 237)))
(assert (= "1" (CharAt var35 656)))
(assert (= "h" (CharAt var7 1000)))
(assert (= "9" (CharAt var4 500)))
(assert (= "g" (CharAt var3 156)))
(assert (= "N" (CharAt var2 711)))
(assert (= "Z" (CharAt var59 875)))
(assert (= "h" (CharAt var5 746)))
(assert (= "v" (CharAt var26 600)))
(assert (= "o" (CharAt var30 192)))
(assert (= "Q" (CharAt var4 807)))
(assert (= "Q" (CharAt var21 314)))
(assert (= "Y" (CharAt var0 275)))
(assert (= "A" (CharAt var33 92)))
(assert (= "*" (CharAt var19 598)))
(assert (= "=" (CharAt var53 918)))
(assert (= "/" (CharAt var18 24)))
(assert (= ">" (CharAt var26 478)))
(assert (= "V" (CharAt var55 338)))
(assert (= "W" (CharAt var45 381)))
(assert (= "P" (CharAt var21 640)))
(assert (= "," (CharAt var48 181)))
(assert (= "Y" (CharAt var37 141)))
(assert (= "A" (CharAt var10 194)))
(assert (= "5" (CharAt var18 991)))
(assert (= "!" (CharAt var43 956)))
(assert (= "," (CharAt var29 396)))
(assert (= "%" (CharAt var23 828)))
(assert (= "H" (CharAt var44 60)))
(assert (= "7" (CharAt var46 718)))
(assert (= ")" (CharAt var44 279)))
(assert (= "K" (CharAt var38 322)))
(assert (= "<" (CharAt var44 677)))
(assert (= "," (CharAt var19 912)))
(assert (= "6" (CharAt var60 154)))
(assert (= "." (CharAt var58 400)))
(assert (= "X" (CharAt var46 46)))
(assert (= "f" (CharAt var10 368)))
(assert (= "Y" (CharAt var4 444)))
(assert (= "E" (CharAt var39 692)))
(assert (= ">" (CharAt var44 27)))
(assert (= "p" (CharAt var40 512)))
(assert (= "D" (CharAt var49 98)))
(assert (= "<" (CharAt var46 2)))
(assert (= "\"" (CharAt var13 772)))
(assert (= "k" (CharAt var25 633)))
(assert (= "g" (CharAt var10 162)))
(assert (= "b" (CharAt var23 599)))
(assert (= "4" (CharAt var53 588)))
(assert (= "9" (CharAt var47 480)))
(assert (= "m" (CharAt var48 606)))
(assert (= "C" (CharAt var33 38)))
(assert (= "C" (CharAt var47 992)))
(assert (= "!" (CharAt var29 582)))
(assert (= "u" (CharAt var11 293)))
(assert (= "/" (CharAt var42 473)))
(assert (= "+" (CharAt var17 533)))
(assert (= "u" (CharAt var40 591)))
(assert (= "+" (CharAt var37 915)))
(assert (= "B" (CharAt var5 395)))
(assert (= "s" (CharAt var37 602)))
(assert (= "b" (CharAt var55 372)))
(assert (= "C" (CharAt var22 933)))
(assert (= "6" (CharAt var5 722)))
(assert (= "-" (CharAt var49 717)))
(assert (= "V" (CharAt var33 383)))
(assert (= "Q" (CharAt var15 279)))
(assert (= "<" (CharAt var15 48)))
(assert (= "," (CharAt var18 243)))
(assert (= "P" (CharAt var35 657)))
(assert (= "k" (CharAt var38 716)))
(assert (= "'" (CharAt var38 204)))
(assert (= "r" (CharAt var31 324)))
(assert (= "2" (CharAt var18 241)))
(assert (= "S" (CharAt var25 975)))
(assert (= ">" (CharAt var57 650)))
(assert (= "k" (CharAt var29 116)))
(assert (= "@" (CharAt var28 160)))
(assert (= "{" (CharAt var3 11)))
(assert (= "6" (CharAt var7 819)))
(assert (= "\"" (CharAt var38 602)))
(assert (= "}" (CharAt var38 271)))
(assert (= "m" (CharAt var6 35)))
(assert (= "8" (CharAt var34 728)))
(assert (= ">" (CharAt var32 904)))
(assert (= "D" (CharAt var48 726)))
(assert (= "J" (CharAt var14 978)))
(assert (= "H" (CharAt var15 754)))
(assert (= "?" (CharAt var39 626)))
(assert (= "u" (CharAt var20 681)))
(assert (= "?" (CharAt var33 553)))
(assert (= "s" (CharAt var4 684)))
(assert (= "9" (CharAt var55 168)))
(assert (= "{" (CharAt var34 25)))
(assert (= "1" (CharAt var39 348)))
(assert (= "J" (CharAt var35 837)))
(assert (= "6" (CharAt var58 587)))
(assert (= "O" (CharAt var9 867)))
(assert (= "?" (CharAt var55 392)))
(assert (= "$" (CharAt var45 20)))
(assert (= "\\" (CharAt var57 852)))
(assert (= "-" (CharAt var50 563)))
(assert (= "o" (CharAt var10 233)))
(assert (= "U" (CharAt var37 738)))
(assert (= "L" (CharAt var8 572)))
(assert (= "P" (CharAt var26 334)))
(assert (= "X" (CharAt var29 24)))
(assert (= "X" (CharAt var38 309)))
(assert (= "_" (CharAt var16 804)))
(assert (= "F" (CharAt var52 788)))
(assert (= "s" (CharAt var15 303)))
(assert (= "8" (CharAt var40 123)))
(assert (= "8" (CharAt var19 664)))
(assert (= "`" (CharAt var12 593)))
(assert (= "$" (CharAt var43 2)))
(assert (= "u" (CharAt var22 580)))
(assert (= "*" (CharAt var22 404)))
(assert (= "~" (CharAt var46 5)))
(assert (= "y" (CharAt var23 891)))
(assert (= "K" (CharAt var39 499)))
(assert (= "z" (CharAt var9 122)))
(assert (= "7" (CharAt var43 464)))
(assert (= "T" (CharAt var27 882)))
(assert (= "'" (CharAt var50 559)))
(assert (= "Q" (CharAt var29 755)))
(assert (= "7" (CharAt var29 130)))
(assert (= ">" (CharAt var26 664)))
(assert (= "d" (CharAt var8 248)))
(assert (= "t" (CharAt var14 666)))
(assert (= "t" (CharAt var20 8)))
(assert (= "T" (CharAt var20 755)))
(assert (= "[" (CharAt var5 120)))
(assert (= "9" (CharAt var30 759)))
(assert (= "<" (CharAt var29 850)))
(assert (= "L" (CharAt var55 590)))
(assert (= "]" (CharAt var23 829)))
(assert (= "z" (CharAt var6 271)))
(assert (= "%" (CharAt var0 432)))
(assert (= "-" (CharAt var32 939)))
(assert (= "m" (CharAt var13 751)))
(assert (= "(" (CharAt var18 834)))
(assert (= "M" (CharAt var18 748)))
(assert (= "Y" (CharAt var4 878)))
(assert (= "s" (CharAt var52 793)))
(assert (= "8" (CharAt var12 13)))
(assert (= "L" (CharAt var55 726)))
(assert (= "c" (CharAt var57 810)))
(assert (= "*" (CharAt var53 814)))
(assert (= "Q" (CharAt var10 88)))
(assert (= "K" (CharAt var51 276)))
(assert (= "6" (CharAt var9 294)))
(assert (= "Q" (CharAt var21 682)))
(assert (= "_" (CharAt var22 398)))
(assert (= "T" (CharAt var25 451)))
(assert (= "y" (CharAt var48 719)))
(assert (= "R" (CharAt var26 788)))
(assert (= "'" (CharAt var3 449)))
(assert (= "@" (CharAt var52 184)))
(assert (= "k" (CharAt var51 501)))
(assert (= "W" (CharAt var12 948)))
(assert (= "D" (CharAt var29 220)))
(assert (= "t" (CharAt var25 922)))
(assert (= ":" (CharAt var37 561)))
(assert (= "+" (CharAt var31 161)))
(assert (= "]" (CharAt var20 822)))
(assert (= "\\" (CharAt var45 8)))
(assert (= "v" (CharAt var1 799)))
(assert (= "X" (CharAt var59 808)))
(assert (= "x" (CharAt var48 66)))
(assert (= "V" (CharAt var54 35)))
(assert (= "@" (CharAt var29 6)))
(assert (= "G" (CharAt var38 720)))
(assert (= "\"" (CharAt var4 507)))
(assert (= "/" (CharAt var14 494)))
(assert (= "S" (CharAt var50 774)))
(assert (= "d" (CharAt var2 388)))
(assert (= "E" (CharAt var2 595)))
(assert (= "F" (CharAt var51 164)))
(assert (= "d" (CharAt var23 985)))
(assert (= "g" (CharAt var36 17)))
(assert (= "V" (CharAt var7 820)))
(assert (= "l" (CharAt var18 847)))
(assert (= "O" (CharAt var2 20)))
(assert (= "a" (CharAt var12 641)))
(assert (= "T" (CharAt var13 959)))
(assert (= "[" (CharAt var42 67)))
(assert (= "b" (CharAt var8 654)))
(assert (= "@" (CharAt var40 39)))
(assert (= "+" (CharAt var50 892)))
(assert (= "g" (CharAt var44 552)))
(assert (= "b" (CharAt var59 544)))
(assert (= "B" (CharAt var46 324)))
(assert (= "9" (CharAt var20 701)))
(assert (= "4" (CharAt var45 982)))
(assert (= "o" (CharAt var31 637)))
(assert (= "8" (CharAt var46 336)))
(assert (= "7" (CharAt var26 707)))
(assert (= "9" (CharAt var37 132)))
(assert (= "9" (CharAt var46 689)))
(assert (= "o" (CharAt var0 527)))
(assert (= "d" (CharAt var34 524)))
(assert (= "_" (CharAt var49 823)))
(assert (= "I" (CharAt var45 797)))
(assert (= "|" (CharAt var17 171)))
(assert (= "q" (CharAt var13 352)))
(assert (= "i" (CharAt var42 730)))
(assert (= "m" (CharAt var26 210)))
(assert (= "}" (CharAt var44 840)))
(assert (= "t" (CharAt var8 636)))
(assert (= "6" (CharAt var6 93)))
(assert (= "/" (CharAt var48 561)))
(assert (= ">" (CharAt var57 638)))
(assert (= "0" (CharAt var27 954)))
(assert (= ";" (CharAt var14 486)))
(assert (= "W" (CharAt var54 145)))
(assert (= "F" (CharAt var9 613)))
(assert (= "i" (CharAt var8 14)))
(assert (= "(" (CharAt var13 920)))
(assert (= "l" (CharAt var14 878)))
(assert (= "w" (CharAt var14 339)))
(assert (= "-" (CharAt var31 353)))
(assert (= "V" (CharAt var30 757)))
(assert (= "m" (CharAt var50 156)))
(assert (= "@" (CharAt var35 54)))
(assert (= "7" (CharAt var20 467)))
(assert (= "d" (CharAt var13 116)))
(assert (= "t" (CharAt var28 379)))
(assert (= "}" (CharAt var17 926)))
(assert (= "8" (CharAt var20 419)))
(assert (= "(" (CharAt var51 431)))
(assert (= "|" (CharAt var5 344)))
(assert (= "~" (CharAt var37 405)))
(assert (= "@" (CharAt var51 28)))
(assert (= ";" (CharAt var45 694)))
(assert (= "7" (CharAt var10 250)))
(assert (= "<" (CharAt var22 126)))
(assert (= "'" (CharAt var53 528)))
(assert (= "9" (CharAt var60 917)))
(assert (= "l" (CharAt var23 92)))
(assert (= "y" (CharAt var32 965)))
(assert (= "c" (CharAt var38 461)))
(assert (= "N" (CharAt var59 42)))
(assert (= "J" (CharAt var21 187)))
(assert (= "3" (CharAt var50 342)))
(assert (= "2" (CharAt var22 26)))
(check-sat)